Traveling Salesman Problem/TSP_generados/Aleatorio1621103263_7.tsp
NAME: Aleatorio1621103263_7.tsp
COMMENT: Randomly generated scenario
TYPE: TSP
DIMENSION: 7
EDGE_WEIGHT_TYPE: ATT
NODE_COORD_SECTION
1 46.92 1.53
2 47.07 36.84
3 12.47 34.48
4 13.18 42.84
5 16.52 23.0
6 17.41 23.86
7 7.35 5.91
