Traveling Salesman Problem/TSP_generados/Aleatorio1621103263_7.opt.tour
NAME: Aleatorio1621103263_7.opt.tour
COMMENT: Optimal solution for Aleatorio1621103263_7 (150.2742331245102)
TYPE: TOUR
DIMENSION: 7
TOUR_SECTION
1 2 4 3 6 5 7
-1
EOF
